Version identifier: 20.1.0.0 | 2020-11-10 | 9bedb6d68
Tried aggregator 2 times.
MIP Presolve eliminated 931 rows and 498 columns.
MIP Presolve modified 2380 coefficients.
Aggregator did 113 substitutions.
Reduced MIP has 1365 rows, 1054 columns, and 4485 nonzeros.
Reduced MIP has 184 binaries, 870 generals, 0 SOSs, and 0 indicators.
Presolve time = 0.01 sec. (5.59 ticks)
Found incumbent of value 2041.000000 after 0.03 sec. (11.34 ticks)
Probing fixed 30 vars, tightened 355 bounds.
Probing time = 0.00 sec. (0.88 ticks)
Tried aggregator 1 time.
Detecting symmetries...
MIP Presolve eliminated 585 rows and 30 columns.
MIP Presolve modified 83 coefficients.
Reduced MIP has 780 rows, 1024 columns, and 2550 nonzeros.
Reduced MIP has 260 binaries, 764 generals, 0 SOSs, and 0 indicators.
Presolve time = 0.01 sec. (2.78 ticks)
Probing time = 0.00 sec. (0.19 ticks)
Clique table members: 5.
MIP emphasis: balance optimality and feasibility.
MIP search method: dynamic search.
Parallel mode: deterministic, using up to 24 threads.
Root relaxation solution time = 0.00 sec. (1.94 ticks)

        Nodes                                         Cuts/
   Node  Left     Objective  IInf  Best Integer    Best Bound    ItCnt     Gap

*     0+    0                         2041.0000        0.0000           100.00%
      0     0        0.0000    30     2041.0000        0.0000      228  100.00%
      0     0        0.0000    46     2041.0000      Cuts: 77      269  100.00%
*     0+    0                           15.0000        0.0000           100.00%
      0     0        0.0000    42       15.0000      Cuts: 20      414  100.00%
      0     0        0.3750   193       15.0000      Cuts: 71      511   97.50%
      0     0        0.4667   250       15.0000      Cuts: 72      616   96.89%
      0     0        0.5556   139       15.0000      Cuts: 52      659   96.30%
      0     0        0.6154   151       15.0000      Cuts: 47      687   95.90%
      0     0        0.6667   140       15.0000      Cuts: 15      699   95.56%
      0     0        0.6667   130       15.0000      Cuts: 30      718   95.56%
      0     0        0.6667   120       15.0000      Cuts: 27      732   95.56%
      0     0        0.6667    81       15.0000      Cuts: 53      742   95.56%
      0     0        0.8182   136       15.0000      Cuts: 20      804   94.55%
      0     0        0.8696   135       15.0000      Cuts: 62      846   94.20%
      0     0        0.8846   147       15.0000      Cuts: 29      883   94.10%
*     0+    0                            8.0000        0.8846            88.94%
      0     0        cutoff              8.0000        8.0000      917    0.00%
Elapsed time = 0.85 sec. (98.03 ticks, tree = 0.01 MB, solutions = 3)

Implied bound cuts applied:  31
Flow cuts applied:  4
Mixed integer rounding cuts applied:  19
Zero-half cuts applied:  102
Lift and project cuts applied:  4
Gomory fractional cuts applied:  3

Root node processing (before b&c):
  Real time             =    0.85 sec. (98.12 ticks)
Parallel b&c, 24 threads:
  Real time             =    0.00 sec. (0.00 ticks)
  Sync time (average)   =    0.00 sec.
  Wait time (average)   =    0.00 sec.
                          ------------
Total (root+branch&cut) =    0.85 sec. (98.12 ticks)

Solution status = Optimal
Solution LB = 8
Solution UB = 8
Runtime = 0.859536 seconds
	Command being timed: "/home/min/git_repos/CS598MEBProject/CNT-ILP/build/cnt -s 2 ./output/k8_n15/simC_c1_k8_n15_u1_s2_del02.input-right.cnp"
	User time (seconds): 14.61
	System time (seconds): 0.10
	Percent of CPU this job got: 1663%
	Elapsed (wall clock) time (h:mm:ss or m:ss): 0:00.88
	Average shared text size (kbytes): 0
	Average unshared data size (kbytes): 0
	Average stack size (kbytes): 0
	Average total size (kbytes): 0
	Maximum resident set size (kbytes): 74740
	Average resident set size (kbytes): 0
	Major (requiring I/O) page faults: 0
	Minor (reclaiming a frame) page faults: 15608
	Voluntary context switches: 4299
	Involuntary context switches: 1820
	Swaps: 0
	File system inputs: 0
	File system outputs: 24
	Socket messages sent: 0
	Socket messages received: 0
	Signals delivered: 0
	Page size (bytes): 4096
	Exit status: 0
